\ Model Routes
\ LP format - for model browsing. Use MPS format to capture full model detail.
Maximize
  - 191.7153353028244 R{0,0} + 623.2046552982704 R{0,1}
   + 623.2046552982704 R{0,2} - 249.2301939667805 R{0,3}
   - 115.9790454349372 R{0,4} + 553.6574194710875 R{0,5}
   + 163.9197735754843 R{0,6} + 568.2280287393723 R{0,7}
   + 561.6597914261542 R{0,8} + 281.9883365781351 R{0,9}
   + 100.7856989525501 R{0,10} + 1066.913298578719 R{0,11}
   + 1500.683221067611 R{0,12} + 1852.324313045152 R{0,13}
   + 2391.316261698315 R{0,14} + 852.449990547552 R{0,15}
   + 1470.324188765146 R{0,16} + 641.8611805903579 R{0,17}
   + 655.4676315862534 R{0,18} + 844.4556938752514 R{0,19}
   - 256.140831891889 R{1,0} + 41.44651618699046 R{1,1}
   + 468.947430945026 R{1,2} + 79.23743184435932 R{1,3}
   + 90.95799008240454 R{1,4} + 4.614361214337464 R{1,5}
   + 557.480431084178 R{1,6} + 1080.578141119801 R{1,7}
   + 113.0626312224127 R{1,8} + 308.8993610153245 R{1,9}
   + 923.965445981639 R{1,10} + 1198.881248318718 R{2,0}
   + 1198.881248318718 R{2,1} - 278.4443928850388 R{2,2}
   - 59.13410337035452 R{2,3} + 602.7748664658451 R{2,4}
   + 1100.505917706273 R{2,5} + 1561.92457697342 R{2,6}
   + 629.9638570536306 R{2,7} + 1561.92457697342 R{2,8}
   + 947.5724883564153 R{2,9} + 972.0651374481311 R{2,10}
   + 895.2449067378445 R{2,11} + 287.3528375540188 R{2,12}
   + 1887.62132186558 R{2,13} + 1669.56995825722 R{2,14}
   + 966.8654494909906 R{2,15} + 287.3528375540188 R{2,16}
   + 319.6029086473882 R{2,17} + 1392.338008896822 R{2,18}
   + 774.877418581361 R{2,19} + 493.1988279536364 R{2,20}
   + 959.2760967192248 R{2,21} - 260.2482995389823 R{3,0}
   + 637.8926476026959 R{3,1} + 1005.833610869225 R{3,2}
   + 1027.992328139346 R{3,3} + 756.5554364287586 R{3,4}
   + 819.2880729150976 R{3,5} + 830.7076207394684 R{3,6}
   + 151.4443770834913 R{3,7} + 1207.505749103721 R{3,8}
   + 830.7076207394684 R{3,9} + 254.5947035475519 R{3,10}
   + 1681.531055895548 R{3,11} + 824.6852527302262 R{3,12}
   + 832.3421073515963 R{3,13} + 763.9445828810826 R{3,14}
   + 1663.465101808314 R{3,15} + 630.1226465873006 R{3,16}
   + 646.2908656821376 R{3,17} + 567.9216537558461 R{3,18}
   + 938.7386111303335 R{3,19} + 1132.777584608195 R{3,20}
   + 749.1366515805787 R{3,21} + 692.0175725946644 R{3,22}
   + 702.7885407642286 R{3,23} - 242.5208875955131 R{4,0}
   + 900.3843124958082 R{4,1} + 1216.961895582121 R{4,2}
   + 1236.568408013214 R{4,3} + 938.9474018673914 R{4,4}
   + 924.5664738813712 R{4,5} + 938.9474018673914 R{4,6}
   + 481.2690687317004 R{4,7} + 1325.642059597117 R{4,8}
   + 495.6499967177203 R{4,9} + 933.059655994377 R{4,10}
   + 938.9474018673914 R{4,11} + 1961.880423205164 R{4,12}
   + 329.1235468612163 R{4,13} + 2024.483045328193 R{4,14}
   + 829.0296385855142 R{4,15} + 2235.223029373571 R{4,16}
   + 2136.64946240798 R{4,17} + 1072.599485247337 R{4,18}
   + 645.7011299475298 R{4,19} + 1251.158471746896 R{4,20}
   + 1190.429055420754 R{4,21} + 1122.144566626299 R{4,22}
   + 1241.144056967685 R{4,23} + 1411.139268561484 R{4,24}
   + 993.4616998013437 R{4,25} + 989.0951865945344 R{4,26}
   + 1151.311240640948 R{4,27} - 231.9775664337766 R{5,0}
   + 166.8396544238635 R{5,1} + 729.4065638506388 R{5,2}
   + 98.51797049164725 R{5,3} + 198.6375892322362 R{5,4}
   + 130.3159053000199 R{5,5} + 83.418257037986 R{5,6}
   + 83.418257037986 R{5,7} + 505.7176802474944 R{5,8}
   + 130.3159053000199 R{5,9} + 1514.020589811393 R{5,10}
   + 808.2695633592534 R{5,11} + 966.8975779328416 R{5,12}
   + 1228.1293729976 R{5,13} + 1222.015290724194 R{5,14}
   + 743.7421600940891 R{5,15} + 371.0283692029681 R{5,16}
   + 785.0527596502279 R{5,17} + 596.1731012125394 R{5,18}
   + 1253.520675237056 R{5,19} - 231.1436095783099 R{6,0}
   + 1291.020798910079 R{6,1} + 1395.48646502248 R{6,2}
   + 1911.078048938017 R{6,3} + 1341.424374175866 R{6,4}
   + 1506.127581131167 R{6,5} + 1702.687965826924 R{6,6}
   + 1341.424374175866 R{6,7} + 1341.424374175866 R{6,8}
   + 1327.643865243346 R{6,9} + 120.9820145344944 R{6,10}
   + 1298.578577363776 R{6,11} + 2101.018332217909 R{6,12}
   + 2403.655847409413 R{6,13} + 2060.896866474096 R{6,14}
   + 1575.528856609346 R{6,15} + 428.9474956623975 R{6,16}
   + 1828.358093942153 R{6,17} + 1619.147649300528 R{6,18}
   + 1689.329388140869 R{6,19} + 1182.108893599224 R{6,20}
   + 1592.945636972911 R{6,21} + 1404.250540755383 R{6,22}
   + 1125.318757130668 R{6,23} + 1614.78945548032 R{6,24}
   + 1284.63423770731 R{6,25} + 1035.118327540054 R{6,26}
   + 1394.176973794683 R{6,27} + 2257.361841798431 R{6,28}
Subject To
 R00: R{0,0} <= 1
 R01: R{0,1} <= 1
 R02: R{0,2} <= 1
 R03: R{0,3} <= 1
 R04: R{0,4} <= 1
 R05: R{0,5} <= 1
 R06: R{0,6} <= 1
 R07: R{0,7} <= 1
 R08: R{0,8} <= 1
 R09: R{0,9} <= 1
 R010: R{0,10} <= 1
 R011: R{0,11} <= 1
 R012: R{0,12} <= 1
 R013: R{0,13} <= 1
 R014: R{0,14} <= 1
 R015: R{0,15} <= 1
 R016: R{0,16} <= 1
 R017: R{0,17} <= 1
 R018: R{0,18} <= 1
 R019: R{0,19} <= 1
 R020: R{1,0} <= 1
 R021: R{1,1} <= 1
 R022: R{1,2} <= 1
 R023: R{1,3} <= 1
 R024: R{1,4} <= 1
 R025: R{1,5} <= 1
 R026: R{1,6} <= 1
 R027: R{1,7} <= 1
 R028: R{1,8} <= 1
 R029: R{1,9} <= 1
 R030: R{1,10} <= 1
 R031: R{2,0} <= 1
 R032: R{2,1} <= 1
 R033: R{2,2} <= 1
 R034: R{2,3} <= 1
 R035: R{2,4} <= 1
 R036: R{2,5} <= 1
 R037: R{2,6} <= 1
 R038: R{2,7} <= 1
 R039: R{2,8} <= 1
 R040: R{2,9} <= 1
 R041: R{2,10} <= 1
 R042: R{2,11} <= 1
 R043: R{2,12} <= 1
 R044: R{2,13} <= 1
 R045: R{2,14} <= 1
 R046: R{2,15} <= 1
 R047: R{2,16} <= 1
 R048: R{2,17} <= 1
 R049: R{2,18} <= 1
 R050: R{2,19} <= 1
 R051: R{2,20} <= 1
 R052: R{2,21} <= 1
 R053: R{3,0} <= 1
 R054: R{3,1} <= 1
 R055: R{3,2} <= 1
 R056: R{3,3} <= 1
 R057: R{3,4} <= 1
 R058: R{3,5} <= 1
 R059: R{3,6} <= 1
 R060: R{3,7} <= 1
 R061: R{3,8} <= 1
 R062: R{3,9} <= 1
 R063: R{3,10} <= 1
 R064: R{3,11} <= 1
 R065: R{3,12} <= 1
 R066: R{3,13} <= 1
 R067: R{3,14} <= 1
 R068: R{3,15} <= 1
 R069: R{3,16} <= 1
 R070: R{3,17} <= 1
 R071: R{3,18} <= 1
 R072: R{3,19} <= 1
 R073: R{3,20} <= 1
 R074: R{3,21} <= 1
 R075: R{3,22} <= 1
 R076: R{3,23} <= 1
 R077: R{4,0} <= 1
 R078: R{4,1} <= 1
 R079: R{4,2} <= 1
 R080: R{4,3} <= 1
 R081: R{4,4} <= 1
 R082: R{4,5} <= 1
 R083: R{4,6} <= 1
 R084: R{4,7} <= 1
 R085: R{4,8} <= 1
 R086: R{4,9} <= 1
 R087: R{4,10} <= 1
 R088: R{4,11} <= 1
 R089: R{4,12} <= 1
 R090: R{4,13} <= 1
 R091: R{4,14} <= 1
 R092: R{4,15} <= 1
 R093: R{4,16} <= 1
 R094: R{4,17} <= 1
 R095: R{4,18} <= 1
 R096: R{4,19} <= 1
 R097: R{4,20} <= 1
 R098: R{4,21} <= 1
 R099: R{4,22} <= 1
 R0100: R{4,23} <= 1
 R0101: R{4,24} <= 1
 R0102: R{4,25} <= 1
 R0103: R{4,26} <= 1
 R0104: R{4,27} <= 1
 R0105: R{5,0} <= 1
 R0106: R{5,1} <= 1
 R0107: R{5,2} <= 1
 R0108: R{5,3} <= 1
 R0109: R{5,4} <= 1
 R0110: R{5,5} <= 1
 R0111: R{5,6} <= 1
 R0112: R{5,7} <= 1
 R0113: R{5,8} <= 1
 R0114: R{5,9} <= 1
 R0115: R{5,10} <= 1
 R0116: R{5,11} <= 1
 R0117: R{5,12} <= 1
 R0118: R{5,13} <= 1
 R0119: R{5,14} <= 1
 R0120: R{5,15} <= 1
 R0121: R{5,16} <= 1
 R0122: R{5,17} <= 1
 R0123: R{5,18} <= 1
 R0124: R{5,19} <= 1
 R0125: R{6,0} <= 1
 R0126: R{6,1} <= 1
 R0127: R{6,2} <= 1
 R0128: R{6,3} <= 1
 R0129: R{6,4} <= 1
 R0130: R{6,5} <= 1
 R0131: R{6,6} <= 1
 R0132: R{6,7} <= 1
 R0133: R{6,8} <= 1
 R0134: R{6,9} <= 1
 R0135: R{6,10} <= 1
 R0136: R{6,11} <= 1
 R0137: R{6,12} <= 1
 R0138: R{6,13} <= 1
 R0139: R{6,14} <= 1
 R0140: R{6,15} <= 1
 R0141: R{6,16} <= 1
 R0142: R{6,17} <= 1
 R0143: R{6,18} <= 1
 R0144: R{6,19} <= 1
 R0145: R{6,20} <= 1
 R0146: R{6,21} <= 1
 R0147: R{6,22} <= 1
 R0148: R{6,23} <= 1
 R0149: R{6,24} <= 1
 R0150: R{6,25} <= 1
 R0151: R{6,26} <= 1
 R0152: R{6,27} <= 1
 R0153: R{6,28} <= 1
 R1_0: R{0,0} + R{0,1} + R{0,2} + R{0,3} + R{0,4} + R{0,5} + R{0,6}
   + R{0,7} + R{0,8} + R{0,9} + R{0,10} + R{0,11} + R{0,12} + R{0,13}
   + R{0,14} + R{0,15} + R{0,16} + R{0,17} + R{0,18} + R{0,19} <= 1
 R1_1: R{1,0} + R{1,1} + R{1,2} + R{1,3} + R{1,4} + R{1,5} + R{1,6}
   + R{1,7} + R{1,8} + R{1,9} + R{1,10} <= 1
 R1_2: R{2,0} + R{2,1} + R{2,2} + R{2,3} + R{2,4} + R{2,5} + R{2,6}
   + R{2,7} + R{2,8} + R{2,9} + R{2,10} + R{2,11} + R{2,12} + R{2,13}
   + R{2,14} + R{2,15} + R{2,16} + R{2,17} + R{2,18} + R{2,19} + R{2,20}
   + R{2,21} <= 1
 R1_3: R{3,0} + R{3,1} + R{3,2} + R{3,3} + R{3,4} + R{3,5} + R{3,6}
   + R{3,7} + R{3,8} + R{3,9} + R{3,10} + R{3,11} + R{3,12} + R{3,13}
   + R{3,14} + R{3,15} + R{3,16} + R{3,17} + R{3,18} + R{3,19} + R{3,20}
   + R{3,21} + R{3,22} + R{3,23} <= 1
 R1_4: R{4,0} + R{4,1} + R{4,2} + R{4,3} + R{4,4} + R{4,5} + R{4,6}
   + R{4,7} + R{4,8} + R{4,9} + R{4,10} + R{4,11} + R{4,12} + R{4,13}
   + R{4,14} + R{4,15} + R{4,16} + R{4,17} + R{4,18} + R{4,19} + R{4,20}
   + R{4,21} + R{4,22} + R{4,23} + R{4,24} + R{4,25} + R{4,26} + R{4,27}
   <= 1
 R1_5: R{5,0} + R{5,1} + R{5,2} + R{5,3} + R{5,4} + R{5,5} + R{5,6}
   + R{5,7} + R{5,8} + R{5,9} + R{5,10} + R{5,11} + R{5,12} + R{5,13}
   + R{5,14} + R{5,15} + R{5,16} + R{5,17} + R{5,18} + R{5,19} <= 1
 R1_6: R{6,0} + R{6,1} + R{6,2} + R{6,3} + R{6,4} + R{6,5} + R{6,6}
   + R{6,7} + R{6,8} + R{6,9} + R{6,10} + R{6,11} + R{6,12} + R{6,13}
   + R{6,14} + R{6,15} + R{6,16} + R{6,17} + R{6,18} + R{6,19} + R{6,20}
   + R{6,21} + R{6,22} + R{6,23} + R{6,24} + R{6,25} + R{6,26} + R{6,27}
   + R{6,28} <= 1
 R2_0: 7 R{0,19} + 7 R{2,12} + 7 R{2,16} + 7 R{2,18} + 7 R{2,19}
   + 7 R{6,23} + 7 R{6,25} + 7 R{6,26} <= 7
 R2_1: 10 R{3,1} + 10 R{3,2} + 10 R{3,3} + 10 R{3,5} + 10 R{3,6}
   + 10 R{3,8} + 10 R{3,9} + 10 R{3,14} + 10 R{3,16} + 10 R{3,17}
   + 10 R{3,19} + 10 R{3,20} + 10 R{3,21} + 10 R{3,22} + 10 R{3,23}
   + 10 R{4,22} + 10 R{5,10} + 10 R{5,11} + 10 R{6,12} + 10 R{6,13}
   + 10 R{6,17} + 10 R{6,20} + 10 R{6,21} + 10 R{6,23} + 10 R{6,28} <= 10
 R2_2: <= 0
 R2_3: 4 R{0,18} + 4 R{1,6} + 4 R{1,9} + 4 R{5,1} + 4 R{5,2} + 4 R{5,4}
   + 4 R{5,12} + 4 R{6,2} + 4 R{6,3} + 4 R{6,9} + 4 R{6,11} + 4 R{6,13}
   + 4 R{6,14} + 4 R{6,15} + 4 R{6,19} + 4 R{6,20} + 4 R{6,23} + 4 R{6,28}
   <= 4
 R2_4: <= 0
 R2_5: 5 R{5,1} + 5 R{5,2} + 5 R{5,3} + 5 R{5,4} + 5 R{5,5} + 5 R{5,8}
   + 5 R{5,9} + 5 R{5,10} + 5 R{5,12} + 5 R{5,14} + 5 R{5,15} <= 5
 R2_6: 10 R{0,11} + 10 R{0,15} + 10 R{0,16} + 10 R{1,1} + 10 R{1,3}
   + 10 R{1,4} + 10 R{1,5} + 10 R{1,6} + 10 R{1,9} + 10 R{1,10}
   + 10 R{2,18} + 10 R{2,20} + 10 R{3,11} + 10 R{3,15} + 10 R{4,17}
   + 10 R{5,11} + 10 R{5,13} + 10 R{5,17} + 10 R{5,19} + 10 R{6,14}
   + 10 R{6,19} <= 10
 R2_7: 6 R{1,1} + 6 R{1,2} + 6 R{1,3} + 6 R{1,4} + 6 R{1,6} + 6 R{1,10}
   <= 6
 R2_8: <= 0
 R2_9: 12 R{4,1} + 12 R{4,2} + 12 R{4,3} + 12 R{4,4} + 12 R{4,5}
   + 12 R{4,6} + 12 R{4,7} + 12 R{4,8} + 12 R{4,9} + 12 R{4,10}
   + 12 R{4,11} + 12 R{4,12} + 12 R{4,13} + 12 R{4,15} + 12 R{4,16}
   + 12 R{4,17} + 12 R{4,18} + 12 R{4,19} + 12 R{4,20} + 12 R{4,21}
   + 12 R{4,22} + 12 R{4,23} + 12 R{4,24} + 12 R{4,25} + 12 R{4,26}
   + 12 R{4,27} <= 12
 R2_10: 8 R{2,10} + 8 R{6,1} + 8 R{6,2} + 8 R{6,3} + 8 R{6,4} + 8 R{6,5}
   + 8 R{6,7} + 8 R{6,8} + 8 R{6,9} + 8 R{6,12} + 8 R{6,14} + 8 R{6,15}
   + 8 R{6,17} + 8 R{6,18} + 8 R{6,19} + 8 R{6,20} + 8 R{6,21} + 8 R{6,24}
   + 8 R{6,27} <= 8
 R2_11: 15 R{2,19} <= 15
 R2_12: <= 0
 R2_13: 8 R{2,13} <= 8
 R2_14: <= 0
 R2_15: 11 R{0,0} + 11 R{0,1} + 11 R{0,2} + 11 R{0,6} + 11 R{0,9}
   + 11 R{0,14} + 11 R{4,1} + 11 R{4,2} + 11 R{4,4} + 11 R{4,6} + 11 R{4,9}
   + 11 R{4,11} + 11 R{4,20} + 11 R{4,27} <= 11
 R2_16: 5 R{0,12} + 5 R{0,14} + 5 R{2,13} + 5 R{2,14} + 5 R{4,14} <= 5
 R2_17: 11 R{1,7} + 11 R{2,19} + 11 R{3,12} + 11 R{4,22} <= 11
 R2_18: 5 R{0,13} + 5 R{0,14} + 5 R{0,16} <= 5
 R2_19: 11 R{5,8} + 11 R{5,12} + 11 R{5,15} + 11 R{6,1} + 11 R{6,2}
   + 11 R{6,3} + 11 R{6,4} + 11 R{6,6} + 11 R{6,7} + 11 R{6,8} + 11 R{6,9}
   + 11 R{6,10} + 11 R{6,11} + 11 R{6,18} + 11 R{6,22} + 11 R{6,24}
   + 11 R{6,25} + 11 R{6,27} <= 11
 R2_20: 13 R{0,13} + 13 R{0,14} + 13 R{2,5} + 13 R{2,6} + 13 R{2,8}
   + 13 R{2,11} + 13 R{3,11} + 13 R{3,13} + 13 R{3,15} + 13 R{4,1}
   + 13 R{4,2} + 13 R{4,4} + 13 R{4,5} + 13 R{4,6} + 13 R{4,8} + 13 R{4,10}
   + 13 R{4,11} + 13 R{4,12} + 13 R{4,14} + 13 R{4,16} + 13 R{4,18}
   + 13 R{4,20} + 13 R{4,23} + 13 R{4,24} + 13 R{4,27} + 13 R{5,10}
   + 13 R{5,14} + 13 R{6,12} + 13 R{6,16} <= 13
 R2_21: <= 0
 R2_22: 10 R{2,13} + 10 R{2,14} + 10 R{2,15} + 10 R{2,19} + 10 R{3,20}
   + 10 R{3,21} + 10 R{6,22} <= 10
 R2_23: 14 R{0,1} + 14 R{0,2} + 14 R{0,7} + 14 R{0,9} + 14 R{0,12}
   + 14 R{2,0} + 14 R{2,1} + 14 R{2,9} + 14 R{2,10} + 14 R{2,14}
   + 14 R{4,3} <= 14
 R2_24: 10 R{2,11} + 10 R{2,14} + 10 R{3,1} + 10 R{3,2} + 10 R{3,3}
   + 10 R{3,4} + 10 R{3,8} + 10 R{3,10} + 10 R{3,11} + 10 R{3,12}
   + 10 R{3,14} + 10 R{3,18} + 10 R{3,22} + 10 R{4,14} + 10 R{5,10} <= 10
 R2_25: 13 R{4,12} <= 13
 R2_26: 6 R{0,11} + 6 R{0,13} + 6 R{0,14} + 6 R{0,16} + 6 R{4,17}
   + 6 R{5,1} + 6 R{5,2} + 6 R{5,3} + 6 R{5,4} + 6 R{5,5} + 6 R{5,6}
   + 6 R{5,7} + 6 R{5,8} + 6 R{5,9} + 6 R{5,10} + 6 R{5,13} + 6 R{5,14}
   + 6 R{5,16} + 6 R{5,17} + 6 R{5,18} + 6 R{5,19} + 6 R{6,16} <= 6
 R2_27: 5 R{0,14} + 5 R{0,19} + 5 R{1,6} + 5 R{1,7} + 5 R{1,8} + 5 R{2,6}
   + 5 R{2,8} + 5 R{2,21} + 5 R{3,12} + 5 R{3,15} + 5 R{3,17} + 5 R{3,19}
   + 5 R{3,21} + 5 R{3,23} + 5 R{4,22} + 5 R{4,27} + 5 R{5,13} + 5 R{5,16}
   + 5 R{5,19} + 5 R{6,1} + 5 R{6,2} + 5 R{6,3} + 5 R{6,4} + 5 R{6,5}
   + 5 R{6,6} + 5 R{6,7} + 5 R{6,8} + 5 R{6,9} + 5 R{6,11} + 5 R{6,12}
   + 5 R{6,15} + 5 R{6,17} + 5 R{6,18} + 5 R{6,20} + 5 R{6,22} + 5 R{6,23}
   + 5 R{6,24} + 5 R{6,25} + 5 R{6,27} + 5 R{6,28} <= 5
 R2_28: <= 0
 R2_29: <= 0
 R2_30: <= 0
 R2_31: 6 R{5,14} + 6 R{5,15} <= 6
 R2_32: 7 R{0,4} + 7 R{0,5} + 7 R{0,8} + 7 R{0,11} + 7 R{0,13} + 7 R{0,15}
   + 7 R{0,18} + 7 R{0,19} + 7 R{5,12} + 7 R{5,13} + 7 R{5,14} + 7 R{5,15}
   + 7 R{5,19} <= 7
 R2_33: 12 R{0,19} + 12 R{2,18} + 12 R{3,14} + 12 R{3,19} + 12 R{5,13}
   + 12 R{5,14} + 12 R{5,15} + 12 R{5,17} + 12 R{5,19} + 12 R{6,27} <= 12
 R2_34: <= 5
 R2_35: 13 R{0,12} + 13 R{4,14} + 13 R{5,13} + 13 R{5,14} + 13 R{5,17}
   + 13 R{5,19} <= 13
 R2_36: <= 0
 R2_37: 5 R{2,21} + 5 R{3,1} + 5 R{3,2} + 5 R{3,3} + 5 R{3,4} + 5 R{3,5}
   + 5 R{3,6} + 5 R{3,7} + 5 R{3,8} + 5 R{3,9} + 5 R{3,10} + 5 R{3,12}
   + 5 R{3,14} + 5 R{3,16} + 5 R{3,17} + 5 R{3,18} + 5 R{3,19} + 5 R{3,20}
   + 5 R{3,21} + 5 R{3,22} + 5 R{3,23} + 5 R{5,17} <= 5
 R2_38: <= 0
 R2_39: <= 0
 R2_40: 15 R{0,13} + 15 R{0,14} + 15 R{0,16} + 15 R{1,10} + 15 R{2,3}
   + 15 R{2,4} + 15 R{2,5} + 15 R{2,6} + 15 R{2,7} + 15 R{2,8} + 15 R{2,11}
   + 15 R{2,18} + 15 R{2,20} + 15 R{4,17} + 15 R{5,11} + 15 R{5,14} <= 15
 R2_41: 5 R{0,13} + 5 R{0,14} + 5 R{0,16} + 5 R{2,13} + 5 R{2,15}
   + 5 R{3,2} + 5 R{3,3} + 5 R{3,4} + 5 R{3,5} + 5 R{3,6} + 5 R{3,8}
   + 5 R{3,9} + 5 R{3,11} + 5 R{3,13} + 5 R{3,15} + 5 R{4,16} + 5 R{4,18}
   + 5 R{4,20} + 5 R{4,24} + 5 R{4,26} + 5 R{5,12} + 5 R{6,6} + 5 R{6,18}
   + 5 R{6,26} <= 5
 R2_42: 4 R{2,3} + 4 R{2,4} + 4 R{2,5} + 4 R{2,6} + 4 R{2,7} + 4 R{2,8}
   + 4 R{2,11} <= 4
 R2_43: <= 0
 R2_44: <= 0
 R2_45: <= 0
 R2_46: 9 R{0,17} + 9 R{2,13} + 9 R{2,14} + 9 R{4,8} + 9 R{4,12}
   + 9 R{4,15} + 9 R{4,16} + 9 R{4,17} + 9 R{4,21} + 9 R{4,25} + 9 R{4,26}
   <= 9
 R2_47: 7 R{5,1} + 7 R{5,2} + 7 R{5,3} + 7 R{5,4} + 7 R{5,5} + 7 R{5,6}
   + 7 R{5,7} + 7 R{5,8} + 7 R{5,9} + 7 R{5,16} <= 7
 R2_48: 4 R{0,17} + 4 R{4,1} + 4 R{4,2} + 4 R{4,3} + 4 R{4,4} + 4 R{4,5}
   + 4 R{4,6} + 4 R{4,7} + 4 R{4,8} + 4 R{4,9} + 4 R{4,10} + 4 R{4,11}
   + 4 R{4,12} + 4 R{4,13} + 4 R{4,15} + 4 R{4,16} + 4 R{4,17} + 4 R{4,18}
   + 4 R{4,19} + 4 R{4,20} + 4 R{4,21} + 4 R{4,22} + 4 R{4,23} + 4 R{4,24}
   + 4 R{4,25} + 4 R{4,26} + 4 R{4,27} <= 4
 R2_49: <= 0
 R2_50: <= 0
 R2_51: 11 R{1,9} + 11 R{4,1} + 11 R{4,2} + 11 R{4,3} + 11 R{4,4}
   + 11 R{4,5} + 11 R{4,6} + 11 R{4,7} + 11 R{4,8} + 11 R{4,9} + 11 R{4,10}
   + 11 R{4,11} + 11 R{4,12} + 11 R{4,14} + 11 R{4,15} + 11 R{4,16}
   + 11 R{4,17} + 11 R{4,20} + 11 R{4,21} + 11 R{4,23} + 11 R{4,24}
   + 11 R{4,27} + 11 R{5,13} + 11 R{5,17} <= 11
 R2_52: 10 R{4,14} + 10 R{4,22} + 10 R{4,24} <= 10
 R2_53: 13 R{4,1} + 13 R{4,4} + 13 R{4,5} + 13 R{4,6} + 13 R{4,7}
   + 13 R{4,8} + 13 R{4,9} + 13 R{4,10} + 13 R{4,11} + 13 R{4,12}
   + 13 R{4,13} + 13 R{4,15} + 13 R{4,17} + 13 R{4,22} + 13 R{4,27} <= 13
 R2_54: 9 R{3,1} + 9 R{3,2} + 9 R{3,3} + 9 R{3,4} + 9 R{3,5} + 9 R{3,6}
   + 9 R{3,7} + 9 R{3,9} + 9 R{3,10} + 9 R{3,11} + 9 R{3,12} + 9 R{3,13}
   + 9 R{3,15} + 9 R{3,16} + 9 R{3,17} + 9 R{3,18} + 9 R{3,20} + 9 R{3,22}
   + 9 R{6,26} <= 9
 R2_55: 8 R{3,16} + 8 R{3,22} + 8 R{6,1} + 8 R{6,2} + 8 R{6,3} + 8 R{6,4}
   + 8 R{6,5} + 8 R{6,6} + 8 R{6,7} + 8 R{6,8} + 8 R{6,9} + 8 R{6,11}
   + 8 R{6,12} + 8 R{6,13} + 8 R{6,14} + 8 R{6,15} + 8 R{6,17} + 8 R{6,18}
   + 8 R{6,19} + 8 R{6,21} + 8 R{6,22} + 8 R{6,24} + 8 R{6,25} + 8 R{6,26}
   + 8 R{6,28} <= 8
 R2_56: 6 R{0,12} + 6 R{2,0} + 6 R{2,1} + 6 R{2,9} + 6 R{2,10} + 6 R{2,12}
   + 6 R{2,16} + 6 R{2,17} + 6 R{3,18} + 6 R{4,2} + 6 R{4,3} + 6 R{4,12}
   + 6 R{4,17} + 6 R{4,19} + 6 R{4,21} + 6 R{4,23} + 6 R{4,25} + 6 R{6,13}
   + 6 R{6,15} + 6 R{6,17} + 6 R{6,19} + 6 R{6,21} + 6 R{6,24} <= 6
 R2_57: <= 0
 R2_58: <= 0
 R2_59: 10 R{0,12} + 10 R{3,11} + 10 R{3,15} + 10 R{4,14} + 10 R{4,16}
   + 10 R{4,17} + 10 R{5,10} + 10 R{6,13} + 10 R{6,14} + 10 R{6,28} <= 10
 R2_60: <= 0
 R2_61: 9 R{0,13} + 9 R{0,14} + 9 R{0,16} + 9 R{2,13} + 9 R{2,14}
   + 9 R{2,15} + 9 R{2,19} + 9 R{3,8} + 9 R{4,14} + 9 R{4,16} + 9 R{5,10}
   + 9 R{6,13} + 9 R{6,14} + 9 R{6,28} <= 9
 R2_62: 10 R{6,14} + 10 R{6,19} <= 10
 R2_63: <= 0
 R2_64: <= 0
 R2_65: 5 R{2,0} + 5 R{2,1} + 5 R{2,13} + 5 R{2,17} + 5 R{6,1} + 5 R{6,2}
   + 5 R{6,3} + 5 R{6,4} + 5 R{6,5} + 5 R{6,6} + 5 R{6,7} + 5 R{6,8}
   + 5 R{6,9} + 5 R{6,11} + 5 R{6,12} + 5 R{6,13} + 5 R{6,14} + 5 R{6,18}
   + 5 R{6,20} + 5 R{6,22} + 5 R{6,24} + 5 R{6,27} + 5 R{6,28} <= 5
 R2_66: 7 R{0,19} + 7 R{2,18} + 7 R{2,20} + 7 R{5,19} + 7 R{6,1} + 7 R{6,2}
   + 7 R{6,4} + 7 R{6,6} + 7 R{6,7} + 7 R{6,8} + 7 R{6,9} + 7 R{6,11}
   + 7 R{6,18} + 7 R{6,20} + 7 R{6,22} + 7 R{6,23} + 7 R{6,24} + 7 R{6,25}
   + 7 R{6,26} + 7 R{6,27} <= 7
 R2_67: 3 R{0,1} + 3 R{0,2} + 3 R{0,6} + 3 R{0,7} + 3 R{0,10} + 3 R{0,12}
   + 3 R{0,13} + 3 R{0,14} + 3 R{0,16} + 3 R{0,17} + 3 R{2,0} + 3 R{2,1}
   + 3 R{2,9} + 3 R{2,10} + 3 R{2,13} + 3 R{2,15} + 3 R{4,14} <= 3
 R2_68: 6 R{5,11} + 6 R{6,1} + 6 R{6,2} + 6 R{6,3} + 6 R{6,4} + 6 R{6,5}
   + 6 R{6,6} + 6 R{6,7} + 6 R{6,8} + 6 R{6,9} + 6 R{6,11} + 6 R{6,13}
   + 6 R{6,14} + 6 R{6,18} + 6 R{6,19} + 6 R{6,20} + 6 R{6,22} + 6 R{6,23}
   + 6 R{6,24} + 6 R{6,25} + 6 R{6,26} + 6 R{6,27} + 6 R{6,28} <= 6
 R2_69: 7 R{2,11} + 7 R{2,20} + 7 R{4,1} + 7 R{4,2} + 7 R{4,3} + 7 R{4,4}
   + 7 R{4,5} + 7 R{4,6} + 7 R{4,7} + 7 R{4,8} + 7 R{4,9} + 7 R{4,10}
   + 7 R{4,11} + 7 R{4,12} + 7 R{4,13} + 7 R{4,15} + 7 R{4,16} + 7 R{4,17}
   + 7 R{4,18} + 7 R{4,19} + 7 R{4,20} + 7 R{4,21} + 7 R{4,23} + 7 R{4,24}
   + 7 R{4,25} + 7 R{4,26} + 7 R{5,11} + 7 R{5,12} + 7 R{6,21} <= 7
 R2_70: 11 R{1,1} + 11 R{1,2} + 11 R{1,4} + 11 R{1,7} <= 11
 R2_71: 7 R{2,14} + 7 R{3,1} + 7 R{3,2} + 7 R{3,3} + 7 R{3,4} + 7 R{3,5}
   + 7 R{3,6} + 7 R{3,7} + 7 R{3,8} + 7 R{3,9} + 7 R{3,11} + 7 R{3,13}
   + 7 R{3,14} + 7 R{3,16} + 7 R{3,19} + 7 R{3,23} + 7 R{6,13} + 7 R{6,14}
   + 7 R{6,19} <= 7
 R2_72: <= 0
 R2_73: <= 0
 R2_74: 5 R{5,1} + 5 R{5,3} + 5 R{5,4} + 5 R{5,5} + 5 R{5,6} + 5 R{5,7}
   + 5 R{5,8} + 5 R{5,9} + 5 R{5,10} + 5 R{5,14} + 5 R{5,15} <= 5
 R2_75: 8 R{6,1} + 8 R{6,2} + 8 R{6,3} + 8 R{6,4} + 8 R{6,5} + 8 R{6,6}
   + 8 R{6,7} + 8 R{6,8} + 8 R{6,12} + 8 R{6,15} + 8 R{6,17} + 8 R{6,20}
   + 8 R{6,21} + 8 R{6,23} + 8 R{6,25} + 8 R{6,26} + 8 R{6,27} <= 8
 R2_76: <= 12
 R2_77: 7 R{0,5} + 7 R{0,8} + 7 R{0,11} + 7 R{0,15} + 7 R{0,18} + 7 R{1,2}
   + 7 R{1,7} + 7 R{1,10} + 7 R{2,4} + 7 R{2,5} + 7 R{2,6} + 7 R{2,7}
   + 7 R{2,8} + 7 R{2,18} + 7 R{2,21} + 7 R{3,20} + 7 R{5,2} + 7 R{5,18}
   + 7 R{6,3} + 7 R{6,5} + 7 R{6,12} + 7 R{6,13} + 7 R{6,14} + 7 R{6,15}
   + 7 R{6,17} + 7 R{6,19} + 7 R{6,21} + 7 R{6,28} <= 7
Bounds
End
